p cnf 18 30
-1 2 0
-2 1 3 0
1 -2 0
-3 2 4 0
-4 3 0
-5 6 0
-6 5 7 8 0
5 -7 0
6 -7 0
-8 7 0
-9 10 0
-10 9 11 0
9 -11 0
-12 10 0
-13 14 0
-14 13 15 0
13 -15 0
-16 14 0
-17 18 0
-18 17 0
1 -19 0
2 -20 0
3 -21 0
4 -22 0
5 -23 0
6 -24 0
7 -25 0
8 -26 0
9 -27 0
10 -28 0
11 -29 0
12 -30 0
